0 290.0 10.0
1 285.0 10.0
2 280.0 10.0
3 275.0 10.0
4 270.0 10.0
5 265.0 10.0
6 260.0 10.0
7 255.0 10.0
8 250.0 10.0
9 245.0 10.0
10 240.0 10.0
11 235.0 10.0
12 230.0 10.0
13 225.0 10.0
14 220.0 10.0
15 215.0 10.0
16 210.0 10.0
17 205.0 10.0
18 200.0 10.0
19 195.0 10.0
20 190.0 10.0
21 185.0 10.0
22 180.0 10.0
23 175.0 10.0
24 170.0 10.0
25 165.0 10.0
26 160.0 10.0
27 155.0 10.0
28 150.0 10.0
29 145.0 10.0
30 140.0 10.0
31 135.0 10.0
32 130.0 10.0
33 125.0 10.0
34 120.0 10.0
35 115.0 10.0
36 110.0 10.0
37 107.14 10.0
38 104.29 10.0
39 101.43 10.0
40 98.57 10.0
41 95.71 10.0
42 92.86 10.0
43 90.0 10.0
44 90.0 12.86
45 90.0 15.71
46 90.0 18.57
47 90.0 21.43
48 90.0 24.29
49 90.0 27.14
50 90.0 30.0
51 92.86 30.0
52 95.71 30.0
53 98.57 30.0
54 101.43 30.0
55 104.29 30.0
56 107.14 30.0
57 110.0 30.0
58 115.0 30.0
59 120.0 30.0
60 125.0 30.0
61 130.0 30.0
62 135.0 30.0
63 140.0 30.0
64 145.0 30.0
65 150.0 30.0
66 155.0 30.0
67 160.0 30.0
68 165.0 30.0
69 170.0 30.0
70 175.0 30.0
71 180.0 30.0
72 185.0 30.0
73 190.0 30.0
74 195.0 30.0
75 200.0 30.0
76 205.0 30.0
77 210.0 30.0
78 215.0 30.0
79 220.0 30.0
80 225.0 30.0
81 230.0 30.0
82 235.0 30.0
83 240.0 30.0
84 245.0 30.0
85 250.0 30.0
86 255.0 30.0
87 260.0 30.0
88 265.0 30.0
89 270.0 30.0
90 275.0 30.0
91 280.0 30.0
92 285.0 30.0
93 290.0 30.0
94 295.0 30.0
95 300.0 30.0
96 305.0 30.0
97 310.0 30.0
98 315.0 30.0
99 320.0 30.0
100 325.0 30.0
101 330.0 30.0
102 335.0 30.0
103 340.0 30.0
104 345.0 30.0
105 350.0 30.0
106 355.0 30.0
107 360.0 30.0
108 365.0 30.0
109 370.0 30.0
110 375.0 30.0
111 380.0 30.0
112 385.0 30.0
113 390.0 30.0
114 392.86 30.0
115 395.71 30.0
116 398.57 30.0
117 401.43 30.0
118 404.29 30.0
119 407.14 30.0
120 410.0 30.0
121 410.0 32.86
122 410.0 35.71
123 410.0 38.57
124 410.0 41.43
125 410.0 44.29
126 410.0 47.14
127 410.0 50.0
128 407.14 50.0
129 404.29 50.0
130 401.43 50.0
131 398.57 50.0
132 395.71 50.0
133 392.86 50.0
134 390.0 50.0
135 385.0 50.0
136 380.0 50.0
137 375.0 50.0
138 370.0 50.0
139 365.0 50.0
140 360.0 50.0
141 355.0 50.0
142 350.0 50.0
143 345.0 50.0
144 340.0 50.0
145 335.0 50.0
146 330.0 50.0
147 325.0 50.0
148 320.0 50.0
149 315.0 50.0
150 310.0 50.0
151 305.0 50.0
152 300.0 50.0
153 295.0 50.0
154 290.0 50.0
155 285.0 50.0
156 280.0 50.0
157 275.0 50.0
158 270.0 50.0
159 250.0 50.0
160 250.0 50.0
161 245.0 50.0
162 240.0 50.0
163 235.0 50.0
164 230.0 50.0
165 225.0 50.0
166 220.0 50.0
167 215.0 50.0
168 210.0 50.0
169 205.0 50.0
170 200.0 50.0
171 195.0 50.0
172 190.0 50.0
173 185.0 50.0
174 180.0 50.0
175 175.0 50.0
176 170.0 50.0
177 165.0 50.0
178 160.0 50.0
179 155.0 50.0
180 150.0 50.0
181 145.0 50.0
182 140.0 50.0
183 135.0 50.0
184 130.0 50.0
185 125.0 50.0
186 120.0 50.0
187 115.0 50.0
188 110.0 50.0
189 105.0 50.0
190 100.0 50.0
191 95.0 50.0
192 90.0 50.0
193 85.0 50.0
194 80.0 50.0
195 75.0 50.0
196 70.0 50.0
197 65.0 50.0
198 60.0 50.0
199 55.0 50.0
200 50.0 50.0
201 45.0 50.0
202 40.0 50.0
203 35.0 50.0
204 30.0 50.0
205 27.14 50.0
206 24.29 50.0
207 21.43 50.0
208 18.57 50.0
209 15.71 50.0
210 12.86 50.0
211 10.0 50.0
212 10.0 52.86
213 10.0 55.71
214 10.0 58.57
215 10.0 61.43
216 10.0 64.29
217 10.0 67.14
218 10.0 70.0
219 12.86 70.0
220 15.71 70.0
221 18.57 70.0
222 21.43 70.0
223 24.29 70.0
224 27.14 70.0
225 30.0 70.0
226 35.0 70.0
227 40.0 70.0
228 45.0 70.0
229 50.0 70.0
230 55.0 70.0
231 60.0 70.0
232 65.0 70.0
233 70.0 70.0
234 75.0 70.0
235 80.0 70.0
236 85.0 70.0
237 90.0 70.0
238 95.0 70.0
239 100.0 70.0
240 105.0 70.0
241 110.0 70.0
242 115.0 70.0
243 120.0 70.0
244 125.0 70.0
245 130.0 70.0
246 135.0 70.0
247 140.0 70.0
248 145.0 70.0
249 150.0 70.0
250 155.0 70.0
251 160.0 70.0
252 165.0 70.0
253 170.0 70.0
254 175.0 70.0
255 180.0 70.0
256 185.0 70.0
257 190.0 70.0
258 195.0 70.0
259 200.0 70.0
260 205.0 70.0
261 210.0 70.0
262 215.0 70.0
263 220.0 70.0
264 225.0 70.0
265 230.0 70.0
266 235.0 70.0
267 240.0 70.0
268 245.0 70.0
269 250.0 70.0
270 255.0 70.0
271 260.0 70.0
272 265.0 70.0
273 270.0 70.0
274 275.0 70.0
275 280.0 70.0
276 285.0 70.0
277 290.0 70.0
278 295.0 70.0
279 300.0 70.0
280 305.0 70.0
281 310.0 70.0
282 315.0 70.0
283 320.0 70.0
284 325.0 70.0
285 330.0 70.0
286 335.0 70.0
287 340.0 70.0
288 345.0 70.0
289 350.0 70.0
290 355.0 70.0
291 360.0 70.0
292 365.0 70.0
293 370.0 70.0
294 375.0 70.0
295 380.0 70.0
296 385.0 70.0
297 390.0 70.0
298 395.0 70.0
299 400.0 70.0
300 405.0 70.0
301 410.0 70.0
302 412.86 70.0
303 415.71 70.0
304 418.57 70.0
305 421.43 70.0
306 424.29 70.0
307 427.14 70.0
308 430.0 70.0
309 430.0 67.14
310 430.0 64.29
311 430.0 61.43
312 430.0 58.57
313 430.0 55.71
314 430.0 52.86
315 430.0 50.0
316 430.0 45.0
317 430.0 40.0
318 430.0 35.0
319 430.0 30.0
320 430.0 27.14
321 430.0 24.29
322 430.0 21.43
323 430.0 18.57
324 430.0 15.71
325 430.0 12.86
326 430.0 10.0
327 427.14 10.0
328 424.29 10.0
329 421.43 10.0
330 418.57 10.0
331 415.71 10.0
332 412.86 10.0
333 410.0 10.0
334 405.0 10.0
335 400.0 10.0
336 395.0 10.0
337 390.0 10.0
338 385.0 10.0
339 380.0 10.0
340 375.0 10.0
341 370.0 10.0
342 365.0 10.0
343 360.0 10.0
344 355.0 10.0
345 350.0 10.0
346 345.0 10.0
347 340.0 10.0
348 335.0 10.0
349 330.0 10.0
350 325.0 10.0
351 320.0 10.0
352 315.0 10.0
353 310.0 10.0
354 305.0 10.0
355 300.0 10.0
0 295.0 10.0
